networks/zoo_86_1446/zoo_86_1446-lower.txt
Number of groups: 43
Flow 27: {1 2 0} {2 31 1} {31 74 2} 
Flow 63: {33 26 0} {26 69 1} 
Flow 112: {3 40 0} {40 37 1} {37 80 2} 
Flow 120: {4 40 0} {40 3 1} {3 46 2} 
Flow 149: {5 40 0} {40 4 1} {4 47 2} 
Flow 190: {6 34 0} {34 27 1} {27 11 2} {11 54 3} 
Flow 249: {7 40 0} {40 2 1} {2 39 2} {39 82 3} 
Flow 281: {8 40 0} {40 34 1} {34 42 2} {42 85 3} 
Flow 287: {9 34 0} {34 10 1} {10 53 2} 
Flow 343: {10 34 0} {34 77 1} 
Flow 379: {11 27 0} {27 34 1} {34 35 2} {35 78 3} 
Flow 405: {12 33 0} {33 24 1} {24 67 2} 
Flow 426: {13 33 0} {33 76 1} 
Flow 445: {14 33 0} {33 21 1} {21 64 2} 
Flow 481: {15 33 0} {33 27 1} {27 20 2} {20 63 3} 
Flow 514: {16 27 0} {27 19 1} {19 62 2} 
Flow 559: {17 27 0} {27 32 1} {32 75 2} 
Flow 581: {18 27 0} {27 16 1} {16 59 2} 
Flow 624: {19 27 0} {27 28 1} {28 71 2} 
Flow 661: {20 27 0} {27 70 1} 
Flow 696: {21 33 0} {33 30 1} {30 73 2} 
Flow 718: {22 27 0} {27 17 1} {17 60 2} 
Flow 741: {2 1 0} {1 44 1} 
Flow 747: {40 7 0} {7 50 1} 
Flow 753: {27 33 0} {33 13 1} {13 56 2} 
Flow 758: {23 27 0} {27 18 1} {18 61 2} 
Flow 816: {24 33 0} {33 41 1} {41 84 2} 
Flow 827: {25 2 0} {2 33 1} {33 12 2} {12 55 3} 
Flow 860: {26 33 0} {33 14 1} {14 57 2} 
Flow 928: {34 6 0} {6 49 1} 
Flow 942: {28 27 0} {27 22 1} {22 65 2} 
Flow 963: {29 27 0} {27 23 1} {23 66 2} 
Flow 979: {30 33 0} {33 15 1} {15 58 2} 
Flow 1024: {31 2 0} {2 25 1} {25 68 2} 
Flow 1058: {32 27 0} {27 29 1} {29 72 2} 
Flow 1190: {35 34 0} {34 43 1} {43 86 2} 
Flow 1194: {36 40 0} {40 5 1} {5 48 2} 
Flow 1231: {37 40 0} {40 8 1} {8 51 2} 
Flow 1295: {38 40 0} {40 36 1} {36 79 2} 
Flow 1302: {39 2 0} {2 45 1} 
Flow 1406: {41 33 0} {33 2 1} {2 40 2} {40 38 3} {38 81 4} 
Flow 1415: {42 34 0} {34 9 1} {9 52 2} 
Flow 1446: {43 34 0} {34 40 1} {40 83 2} 
Time taken running everything: 4 seconds
