networks/zoo_86_1446/zoo_86_1446-lower.sol
<?xml version = "1.0" encoding="UTF-8" standalone="yes"?>
<CPLEXSolution version="1.2">
 <header
   problemName="networks/zoo_86_1446/zoo_86_1446-lower.lp"
   solutionName="incumbent"
   solutionIndex="-1"
   objectiveValue="43"
   solutionTypeValue="3"
   solutionTypeString="primal"
   solutionStatusValue="101"
   solutionStatusString="integer optimal solution"
   solutionMethodString="mip"
   primalFeasible="1"
   dualFeasible="1"
   MIPNodes="0"
   MIPIterations="0"
   writeLevel="3"/>
 <quality
   epInt="1.0000000000000001e-05"
   epRHS="9.9999999999999995e-07"
   maxIntInfeas="0"
   maxPrimalInfeas="0"
   maxX="1"
   maxSlack="1"/>
 <variables>
  <variable name="Y(1,2)" index="1" value="1"/>
  <variable name="Y(2,3)" index="88" value="1"/>
  <variable name="Y(3,4)" index="175" value="1"/>
  <variable name="Y(4,5)" index="262" value="1"/>
  <variable name="Y(5,6)" index="349" value="1"/>
  <variable name="Y(6,8)" index="437" value="1"/>
  <variable name="Y(7,9)" index="524" value="1"/>
  <variable name="Y(8,10)" index="611" value="1"/>
  <variable name="Y(9,11)" index="698" value="1"/>
  <variable name="Y(10,12)" index="785" value="1"/>
  <variable name="Y(11,14)" index="873" value="1"/>
  <variable name="Y(12,15)" index="960" value="1"/>
  <variable name="Y(13,16)" index="1047" value="1"/>
  <variable name="Y(14,17)" index="1134" value="1"/>
  <variable name="Y(15,18)" index="1221" value="1"/>
  <variable name="Y(16,19)" index="1308" value="1"/>
  <variable name="Y(17,20)" index="1395" value="1"/>
  <variable name="Y(18,21)" index="1482" value="1"/>
  <variable name="Y(19,22)" index="1569" value="1"/>
  <variable name="Y(20,23)" index="1656" value="1"/>
  <variable name="Y(21,24)" index="1743" value="1"/>
  <variable name="Y(22,25)" index="1830" value="1"/>
  <variable name="Y(23,27)" index="1918" value="1"/>
  <variable name="Y(24,28)" index="2005" value="1"/>
  <variable name="Y(25,29)" index="2092" value="1"/>
  <variable name="Y(26,30)" index="2179" value="1"/>
  <variable name="Y(27,31)" index="2266" value="1"/>
  <variable name="Y(28,32)" index="2353" value="1"/>
  <variable name="Y(29,33)" index="2440" value="1"/>
  <variable name="Y(30,34)" index="2527" value="1"/>
  <variable name="Y(31,35)" index="2614" value="1"/>
  <variable name="Y(32,36)" index="2701" value="1"/>
  <variable name="Y(33,37)" index="2788" value="1"/>
  <variable name="Y(34,38)" index="2875" value="1"/>
  <variable name="Y(35,39)" index="2962" value="1"/>
  <variable name="Y(36,40)" index="3049" value="1"/>
  <variable name="Y(37,41)" index="3136" value="1"/>
  <variable name="Y(38,42)" index="3223" value="1"/>
  <variable name="Y(39,43)" index="3310" value="1"/>
  <variable name="Y(40,1)" index="3354" value="1"/>
  <variable name="Y(45,7)" index="3790" value="1"/>
  <variable name="Y(63,26)" index="5357" value="1"/>
  <variable name="Y(753,13)" index="64684" value="1"/>
  <variable name="X(1,2,1)" index="124356" value="1"/>
  <variable name="X(1,44,40)" index="125841" value="1"/>
  <variable name="X(2,1,40)" index="127287" value="1"/>
  <variable name="X(2,25,22)" index="128715" value="1"/>
  <variable name="X(2,31,27)" index="130166" value="1"/>
  <variable name="X(2,33,9)" index="131594" value="1"/>
  <variable name="X(2,39,35)" index="133066" value="1"/>
  <variable name="X(2,40,2)" index="134479" value="1"/>
  <variable name="X(2,45,1)" index="135924" value="1"/>
  <variable name="X(3,40,81)" index="137450" value="1"/>
  <variable name="X(3,46,2)" index="138817" value="1"/>
  <variable name="X(4,40,119)" index="140380" value="1"/>
  <variable name="X(4,47,3)" index="141710" value="1"/>
  <variable name="X(5,40,147)" index="143300" value="1"/>
  <variable name="X(5,48,4)" index="144603" value="1"/>
  <variable name="X(6,34,185)" index="146230" value="1"/>
  <variable name="X(6,49,5)" index="147496" value="1"/>
  <variable name="X(7,40,214)" index="149151" value="1"/>
  <variable name="X(7,50,45)" index="150428" value="1"/>
  <variable name="X(8,40,254)" index="152083" value="1"/>
  <variable name="X(8,51,6)" index="153281" value="1"/>
  <variable name="X(9,34,282)" index="155003" value="1"/>
  <variable name="X(9,52,7)" index="156174" value="1"/>
  <variable name="X(10,34,315)" index="157928" value="1"/>
  <variable name="X(10,53,8)" index="159067" value="1"/>
  <variable name="X(11,27,353)" index="160858" value="1"/>
  <variable name="X(11,54,9)" index="161960" value="1"/>
  <variable name="X(12,33,386)" index="163783" value="1"/>
  <variable name="X(12,55,10)" index="164853" value="1"/>
  <variable name="X(13,33,424)" index="166713" value="1"/>
  <variable name="X(13,56,753)" index="168488" value="1"/>
  <variable name="X(14,33,429)" index="169610" value="1"/>
  <variable name="X(14,57,11)" index="170638" value="1"/>
  <variable name="X(15,33,467)" index="172540" value="1"/>
  <variable name="X(15,58,12)" index="173531" value="1"/>
  <variable name="X(16,27,502)" index="175467" value="1"/>
  <variable name="X(16,59,13)" index="176424" value="1"/>
  <variable name="X(17,27,533)" index="178390" value="1"/>
  <variable name="X(17,60,14)" index="179317" value="1"/>
  <variable name="X(18,27,571)" index="181320" value="1"/>
  <variable name="X(18,61,15)" index="182210" value="1"/>
  <variable name="X(19,27,602)" index="184243" value="1"/>
  <variable name="X(19,62,16)" index="185103" value="1"/>
  <variable name="X(20,27,640)" index="187173" value="1"/>
  <variable name="X(20,63,17)" index="187996" value="1"/>
  <variable name="X(21,33,678)" index="190103" value="1"/>
  <variable name="X(21,64,18)" index="190889" value="1"/>
  <variable name="X(22,27,706)" index="193023" value="1"/>
  <variable name="X(22,65,19)" index="193782" value="1"/>
  <variable name="X(23,27,741)" index="195950" value="1"/>
  <variable name="X(23,66,20)" index="196675" value="1"/>
  <variable name="X(24,33,783)" index="198884" value="1"/>
  <variable name="X(24,67,21)" index="199568" value="1"/>
  <variable name="X(25,2,819)" index="201812" value="1"/>
  <variable name="X(25,68,22)" index="202461" value="1"/>
  <variable name="X(26,33,854)" index="204739" value="1"/>
  <variable name="X(26,69,63)" index="205394" value="1"/>
  <variable name="X(27,11,9)" index="206786" value="1"/>
  <variable name="X(27,16,13)" index="208236" value="1"/>
  <variable name="X(27,17,14)" index="209683" value="1"/>
  <variable name="X(27,18,15)" index="211130" value="1"/>
  <variable name="X(27,19,16)" index="212577" value="1"/>
  <variable name="X(27,20,17)" index="214024" value="1"/>
  <variable name="X(27,22,19)" index="215472" value="1"/>
  <variable name="X(27,23,20)" index="216919" value="1"/>
  <variable name="X(27,28,24)" index="218369" value="1"/>
  <variable name="X(27,29,25)" index="219816" value="1"/>
  <variable name="X(27,32,28)" index="221265" value="1"/>
  <variable name="X(27,33,191)" index="222874" value="1"/>
  <variable name="X(27,34,354)" index="224483" value="1"/>
  <variable name="X(27,70,23)" index="225598" value="1"/>
  <variable name="X(28,27,924)" index="227945" value="1"/>
  <variable name="X(28,71,24)" index="228491" value="1"/>
  <variable name="X(29,27,962)" index="230875" value="1"/>
  <variable name="X(29,72,25)" index="231384" value="1"/>
  <variable name="X(30,33,969)" index="233774" value="1"/>
  <variable name="X(30,73,26)" index="234277" value="1"/>
  <variable name="X(31,2,1006)" index="236703" value="1"/>
  <variable name="X(31,74,27)" index="237170" value="1"/>
  <variable name="X(32,27,1038)" index="239627" value="1"/>
  <variable name="X(32,75,28)" index="240063" value="1"/>
  <variable name="X(33,2,353)" index="241834" value="1"/>
  <variable name="X(33,12,10)" index="242937" value="1"/>
  <variable name="X(33,13,753)" index="245126" value="1"/>
  <variable name="X(33,14,11)" index="245830" value="1"/>
  <variable name="X(33,15,12)" index="247277" value="1"/>
  <variable name="X(33,21,18)" index="248729" value="1"/>
  <variable name="X(33,24,21)" index="250178" value="1"/>
  <variable name="X(33,26,63)" index="251666" value="1"/>
  <variable name="X(33,27,9)" index="253058" value="1"/>
  <variable name="X(33,30,26)" index="254521" value="1"/>
  <variable name="X(33,41,37)" index="255978" value="1"/>
  <variable name="X(33,76,29)" index="257416" value="1"/>
  <variable name="X(34,6,5)" index="258838" value="1"/>
  <variable name="X(34,9,7)" index="260286" value="1"/>
  <variable name="X(34,10,8)" index="261733" value="1"/>
  <variable name="X(34,27,88)" index="263259" value="1"/>
  <variable name="X(34,35,31)" index="264648" value="1"/>
  <variable name="X(34,40,185)" index="266248" value="1"/>
  <variable name="X(34,42,38)" index="267547" value="1"/>
  <variable name="X(34,43,39)" index="268994" value="1"/>
  <variable name="X(34,77,30)" index="270431" value="1"/>
  <variable name="X(35,34,1153)" index="273000" value="1"/>
  <variable name="X(35,78,31)" index="273324" value="1"/>
  <variable name="X(36,40,1191)" index="275930" value="1"/>
  <variable name="X(36,79,32)" index="276217" value="1"/>
  <variable name="X(37,40,1226)" index="278857" value="1"/>
  <variable name="X(37,80,33)" index="279110" value="1"/>
  <variable name="X(38,40,1264)" index="281787" value="1"/>
  <variable name="X(38,81,34)" index="282003" value="1"/>
  <variable name="X(39,2,1302)" index="284717" value="1"/>
  <variable name="X(39,82,35)" index="284896" value="1"/>
  <variable name="X(40,2,81)" index="286388" value="1"/>
  <variable name="X(40,3,2)" index="287755" value="1"/>
  <variable name="X(40,4,3)" index="289202" value="1"/>
  <variable name="X(40,5,4)" index="290649" value="1"/>
  <variable name="X(40,7,45)" index="292136" value="1"/>
  <variable name="X(40,8,6)" index="293543" value="1"/>
  <variable name="X(40,34,5)" index="294988" value="1"/>
  <variable name="X(40,36,32)" index="296461" value="1"/>
  <variable name="X(40,37,33)" index="297908" value="1"/>
  <variable name="X(40,38,34)" index="299355" value="1"/>
  <variable name="X(40,83,36)" index="300803" value="1"/>
  <variable name="X(41,33,1382)" index="303595" value="1"/>
  <variable name="X(41,84,37)" index="303696" value="1"/>
  <variable name="X(42,34,1410)" index="306515" value="1"/>
  <variable name="X(42,85,38)" index="306589" value="1"/>
  <variable name="X(43,34,1442)" index="309439" value="1"/>
  <variable name="X(43,86,39)" index="309482" value="1"/>
 </variables>
</CPLEXSolution>
